global _chemical_name MyName            
   1.00000000000000     
     5.4723446003665890   -0.0125001988282652    0.0020512943916367
    -0.0176427681036916    7.7940949419213341    0.0117250926105921
    -0.9032318520311710   -2.5840156511820944    7.9514070243622017
   B    In   Ga   N 
     2     3    10    15
Direct
  0.1986167115639328  0.3864388196220751  0.1925235874885906
  0.5101685397178060  0.0756229056385970  0.2101518960357659
  0.8756094729176670  0.7370690757316598  0.1944916800568657
  0.3978322475150372  0.8002133812425518  0.3905764976848469
  0.4658017185292048  0.9350575254585907  0.8264209179816633
 -0.0001204803000668  0.0182147409604052  0.0236975091572286
  0.3336791738396642  0.6547849726594973 -0.0023573330973556
  0.6647386182022662  0.3306210014825656  0.0073698864949566
  0.0586320956147912  0.1461631246275007  0.3928533374824213
  0.7289617989584738  0.4520934001961824  0.3811888081076724
  0.2666473534566226  0.5249507340648177  0.5811775188994450
  0.6021386678162910  0.2033884788334951  0.5933377751067426
  0.1369574833872350  0.2733036009436135  0.8080901179814945
  0.9371906009174694  0.8704715707461574  0.6088289350900942
  0.8064900197223767  0.5963453963608970  0.7897216375434625
  0.8017586333207882  0.0183792162134116  0.2080012776142547
  0.2176193363310598  0.5880142025731817  0.1819880465488173
  0.4870045775488921  0.2923604580828130  0.1939791811478720
  0.0800738763878713  0.3846024541243827  0.3630845201585590
  0.4045622445304397  0.0713722704378164  0.3781571338404703
  0.9413163620318850  0.1210765929121370  0.6006562263638378
  0.7535967160659786  0.7082036826925652  0.4134101433765000
  0.2579453041370916  0.7769529854043292  0.6060249282048326
  0.6073146308386744  0.4498457812293528  0.5891755387471302
  0.1383135046872909  0.5149541750291606  0.7882520194374727
  0.4728193317985948  0.1948558987732737  0.7971556755714555
  0.0229887010617309  0.2683366613443687  0.0250867646752185
  0.8343590902991574  0.8539456446839514  0.8169723910637081
  0.3361519453326323  0.9320291185490309  0.0587912299479358
  0.6608317237691427  0.5703321293816197 -0.0188078487119598
 
  0.00000000E+00  0.00000000E+00  0.00000000E+00
  0.00000000E+00  0.00000000E+00  0.00000000E+00
  0.00000000E+00  0.00000000E+00  0.00000000E+00
  0.00000000E+00  0.00000000E+00  0.00000000E+00
  0.00000000E+00  0.00000000E+00  0.00000000E+00
  0.00000000E+00  0.00000000E+00  0.00000000E+00
  0.00000000E+00  0.00000000E+00  0.00000000E+00
  0.00000000E+00  0.00000000E+00  0.00000000E+00
  0.00000000E+00  0.00000000E+00  0.00000000E+00
  0.00000000E+00  0.00000000E+00  0.00000000E+00
  0.00000000E+00  0.00000000E+00  0.00000000E+00
  0.00000000E+00  0.00000000E+00  0.00000000E+00
  0.00000000E+00  0.00000000E+00  0.00000000E+00
  0.00000000E+00  0.00000000E+00  0.00000000E+00
  0.00000000E+00  0.00000000E+00  0.00000000E+00
  0.00000000E+00  0.00000000E+00  0.00000000E+00
  0.00000000E+00  0.00000000E+00  0.00000000E+00
  0.00000000E+00  0.00000000E+00  0.00000000E+00
  0.00000000E+00  0.00000000E+00  0.00000000E+00
  0.00000000E+00  0.00000000E+00  0.00000000E+00
  0.00000000E+00  0.00000000E+00  0.00000000E+00
  0.00000000E+00  0.00000000E+00  0.00000000E+00
  0.00000000E+00  0.00000000E+00  0.00000000E+00
  0.00000000E+00  0.00000000E+00  0.00000000E+00
  0.00000000E+00  0.00000000E+00  0.00000000E+00
  0.00000000E+00  0.00000000E+00  0.00000000E+00
  0.00000000E+00  0.00000000E+00  0.00000000E+00
  0.00000000E+00  0.00000000E+00  0.00000000E+00
  0.00000000E+00  0.00000000E+00  0.00000000E+00
  0.00000000E+00  0.00000000E+00  0.00000000E+00
